webassembly/ejemplos_dzn/folder5_json_41.dzn
TERM = { '.', 's(2)', 'local_0', 's(1)', 's(0)', 's(3)', 'in_0'};
null = '.';
s = 5;
n = 8;
ndeps = 3;
max_registers_sz = 3;
NR = 0;
registers = [| |];
dependencies = [|'i32.load16_s_0', 'call[function_index(0)]_1', |'call[function_index(0)]_1', 'i32.load8_u_2', |'call[function_index(0)]_1', 'i32.load16_s_4'|];
GET_ENUM = { GET1, GET2, GET3};
SET_ENUM = { SET1, SET2, SET3};
TEE_ENUM = { TEE1, TEE2, TEE3};
N = 5;
OP = { 'call[function_index(0)]_1', 'i32.load16_s_0', 'i32.load8_u_2', 'i32.load16_s_4', 'local.get_0' };
in_ops = [0, 1, 1, 1, 0 ];
out_ops = [1, 1, 1, 1, 1 ];
in1 = ['.', 'in_0', 's(1)', 'local_0', '.' ];
in2 = ['.', '.', '.', '.', '.' ];
in3 = ['.', '.', '.', '.', '.' ];
out1 = ['s(1)', 's(0)', 's(2)', 's(3)', 'local_0' ];
out2 = ['.', '.', '.', '.', '.' ];
out3 = ['.', '.', '.', '.', '.' ];
comm = [false, false, false, false, false ];
gas = [1, 1, 1, 1, 1 ];
sz = [1, 1, 1, 1, 1 ];
stor = [true, false, false, false, false ];
lb = [ 1, 1, 1, 1, 1 ];
ub = [ 5, 5, 5, 5, 5 ];
startstack = [ 'in_0', null, null, null, null, null, null, null ];
endstack = [ 's(3)', 's(2)', 's(0)', null, null, null, null, null ];
